c This is QMaxSAT 2017 based on 14.07
c This is Glucose 3.0
c This is MiniSat 2.2.0
c WARNING: for repeatability, setting FPU to use double precision
c card = mrwto, comp = 0, pmodel = 0, narr = 2, mct = 16, verb = 0
cr firstCPXsol 0 0 0
c top = 214379
c |  Number of variables:    3662                                             |
c |  Number of clauses:      307864                                           |
c |  Weight of hard clauses: 214379                                           |
c |  Number of soft clauses: 480                                              |
c |  Number of unit soft clauses: 480                                         |
c |  Maximum Cardinality (by unit): 428756       (428756      )               |
c last restart ## conflicts  :  0 257 
o 6157 | cpuTime 0.039639 s
c Sum of weights = 214378
c A number of soft clauses remained = 240
c MRWTO encoding for Pseudo-Boolean Constraints
c sizeMax=6157
c No.0 Divisor=9	generated by pow1
c No.1 Divisor=9	generated by pow1
c No.2 Divisor=9	generated by pow1
c No.3 Divisor=9	generated by pow1
c p0= 9	p1= 9	p2= 9	p3= 9	
c number of digits = 5
c linkingVar[0].size = 9, linkingVar[1].size = 9, linkingVar[2].size = 9, linkingVar[3].size = 9, linkingVar[4].size = 1, 
c Pseudo-Boolean Constraints: 6274 variables and 53596 clauses
c Sum of weights = 214378
c A number of soft clauses remained = 240
c MRWTO encoding for Pseudo-Boolean Constraints
c sizeMax=6157
c No.0 Divisor=9	generated by pow1
c No.1 Divisor=9	generated by pow1
c No.2 Divisor=9	generated by pow1
c No.3 Divisor=9	generated by pow1
c p0= 9	p1= 9	p2= 9	p3= 9	
c number of digits = 5
c linkingVar[0].size = 9, linkingVar[1].size = 9, linkingVar[2].size = 9, linkingVar[3].size = 9, linkingVar[4].size = 1, 
c Pseudo-Boolean Constraints: 6274 variables and 53596 clauses
c last restart ## conflicts  :  61 919 
o 5665 | cpuTime 0.139176 s
c last restart ## conflicts  :  106 4035 
o 5647 | cpuTime 0.146861 s
c last restart ## conflicts  :  180 927 
o 5538 | cpuTime 0.290558 s
c last restart ## conflicts  :  330 1302 
o 5433 | cpuTime 0.3567 s
c last restart ## conflicts  :  317 708 
o 5394 | cpuTime 2.54927 s
c last restart ## conflicts  :  594 695 
o 5307 | cpuTime 4.92073 s
c last restart ## conflicts  :  709 750 
o 5275 | cpuTime 7.72632 s
c last restart ## conflicts  :  380 848 
o 5241 | cpuTime 8.16454 s
c last restart ## conflicts  :  1023 825 
o 5238 | cpuTime 8.69124 s
c last restart ## conflicts  :  982 676 
o 5237 | cpuTime 11.4229 s
c last restart ## conflicts  :  994 578 
o 5235 | cpuTime 14.2852 s
c last restart ## conflicts  :  871 704 
o 5229 | cpuTime 16.0782 s
c last restart ## conflicts  :  401 562 
o 5224 | cpuTime 21.9191 s
c last restart ## conflicts  :  166 2338 
o 5199 | cpuTime 21.9333 s
c last restart ## conflicts  :  912 705 
o 5192 | cpuTime 27.2075 s
c last restart ## conflicts  :  144 1693 
o 5152 | cpuTime 27.2184 s
c last restart ## conflicts  :  205 746 
o 5151 | cpuTime 32.1594 s
c last restart ## conflicts  :  4215 723 
o 5150 | cpuTime 32.5398 s
c last restart ## conflicts  :  2053 631 
o 5144 | cpuTime 43.3036 s
s OPTIMUM FOUND
cr positiVarArr: [ | 11@1(1->11) | 81@1(6->1) | 166@1(11->6) | 272@2(1->16) | 280@2(2->8) | 290@2(3->2) | 307@2(4->3) | 329@2(5->9) | 356@2(7->4) | 369@2(8->1) | 394@2(9->10) | 407@2(10->7) | 446@2(12->14) | 460@2(13->12) | 479@2(14->15) | 485@2(15->5) | 509@2(16->13) | ]
cr the 1-th chain: [ 1->11->6->1 ] (#non-depot=2) {#cumul.=3}
cr the 2-th chain: [ 1->16->13->12->14->15->5->9->10->7->4->3->2->8->1 ] (#non-depot=13) {#cumul.=16}
c Latest Answer = 0 by 20 loops
c restarts              : 6111
c conflicts             : 1823726        (7444 /sec)
c decisions             : 4121337        (0.00 % random) (16823 /sec)
c propagations          : 938377683      (3830280 /sec)
c conflict literals     : 251809538      (49.36 % deleted)
c Memory used           : 218.00 MB
c CPU time              : 244.989 s
